n_res = 4;
rc = [ 0, 0, 0, 0 ];
n_tasks = 30;
d = [ 3, 4, 5, 8, 1, 5, 4, 8, 10, 4, 3, 10, 6, 6, 10, 9, 8, 6, 1, 9, 5, 4, 3, 6, 10, 9, 6, 9, 5, 10 ];
rr = [| 0, 0, 0, 0, 0, 0, 0, 0, 0, 0, 0, 0, 0, 0, 0, 0, 0, 0, 0, 0, 0, 0, 0, 0, 0, 0, 0, 0, 0, 0
      | 0, 0, 0, 0, 0, 0, 0, 0, 0, 0, 0, 0, 0, 0, 0, 0, 0, 0, 0, 0, 0, 0, 0, 0, 0, 0, 0, 0, 0, 0
      | 0, 0, 0, 0, 0, 0, 0, 0, 0, 0, 0, 0, 0, 0, 0, 0, 0, 0, 0, 0, 0, 0, 0, 0, 0, 0, 0, 0, 0, 0
      | 0, 0, 0, 0, 0, 0, 0, 0, 0, 0, 0, 0, 0, 0, 0, 0, 0, 0, 0, 0, 0, 0, 0, 0, 0, 0, 0, 0, 0, 0 |];
suc = [ { 4, 11, 19 },
       { 4, 6, 8 },
       { 5, 14, 18 },
       { 7, 10, 12 },
       { 11, 13, 15 },
       { 23, 24, 30 },
       { 9, 16, 26 },
       { 11, 13, 22 },
       { 13, 17, 18 },
       { 14, 20 },
       { 12, 16, 25 },
       { 21, 27, 28 },
       { 20 },
       { 17, 22, 25 },
       { 16, 19, 20 },
       { 17, 23, 28 },
       { 24 },
       { 21, 23 },
       { 22, 25, 27 },
       { 21, 27, 28 },
       { 24 },
       { 26 },
       { 29 },
       { 29 },
       { 26, 29 },
       { 30 },
       { 30 },
       {  },
       {  },
       {  } ];
